n = 31;
lu = [|-936, 0
      |-731, 603
      |-673, -157
      |-873, 439
      |-731, -677
      |-487, 135
      |496, 590
      |-676, -660
      |-894, 555
      |-837, 395
      |-682, -488
      |136, 538
      |-45, 116
      |-542, -117
      |-771, 253
      |-920, -720
      |616, 856
      |-262, -136
      |-555, -540
      |-285, -159
      |-214, 261
      |-531, -457
      |-517, 521
      |-109, 236
      |160, 396
      |-856, -839
      |-593, 756
      |-686, -233
      |-659, -544
      |669, 751
      |-899, -191|];
